
;this file is automatically generated: Thu Jun 09 16:38:52 IST 2016

;declarations generated

(declare-fun a_0_2 () Int )
(declare-fun a_0_3 () Int )
(declare-fun A0 () Int )
(declare-fun s3 () Int )
(declare-fun s0 () Int )
(declare-fun s2 () Int )
(declare-fun s1 () Int )

;formula(s) generated
(assert (and (>= A0 0) (<= A0 1)))
(assert (and (>= s0 0) (<= s0 1)))
(assert (and (>= s1 0) (<= s1 1)))
(assert (and (>= s2 0) (<= s2 1)))
(assert (and (>= s3 0) (<= s3 1)))
(assert (and (>= a_0_2 0) (<= a_0_2 1)))
(assert (and (>= a_0_3 0) (<= a_0_3 1)))
(assert (= s0 0))
(assert (= s1 0))
(assert (=> (= s2 1) (= a_0_2 1)))
(assert (=> (= s2 0) (= a_0_2 0)))
(assert (=> (= s3 1) (= a_0_3 1)))
(assert (=> (= s3 0) (= a_0_3 0)))
(assert (=> (or (= a_0_2 1) (= a_0_3 1)) (= A0 1)))
(assert (=> (and (= a_0_2 0) (= a_0_3 0)) (= A0 0)))
(assert (not (= s2 1) ))
(assert (not (= s3 1) ))
(assert (= (+ (+ (+ s0 s1) s2) s3) 5))
